200
1000
380
379
378
377
377
373
373
370
369
368
367
365
364
364
361
355
354
352
351
348
342
340
339
338
337
336
333
329
326
326
325
325
325
322
321
320
319
319
318
317
317
316
316
311
305
304
301
301
299
295
293
292
292
288
287
285
285
282
281
281
280
280
279
279
279
278
272
272
270
267
264
263
255
254
254
251
249
249
245
243
243
242
241
240
236
233
229
228
228
225
225
222
222
217
216
216
215
210
210
206
206
205
204
202
202
199
199
198
198
197
196
188
188
187
185
179
178
177
176
176
175
175
175
174
173
173
171
166
165
162
161
161
160
159
158
158
158
158
155
154
153
152
149
149
144
140
139
138
135
131
129
127
127
125
119
118
118
116
116
114
106
102
98
92
91
91
89
89
86
85
84
83
82
79
77
75
75
71
70
67
65
59
58
57
56
55
52
41
40
40
36
33
31
30
30
28
27
23
22
22
